Traveling Salesman Problem/TSP_generados/Aleatorio1621103296_8.tsp
NAME: Aleatorio1621103296_8.tsp
COMMENT: Randomly generated scenario
TYPE: TSP
DIMENSION: 8
EDGE_WEIGHT_TYPE: ATT
NODE_COORD_SECTION
1 30.08 4.58
2 4.72 16.96
3 43.58 1.42
4 29.43 47.83
5 48.61 33.15
6 31.92 11.89
7 45.53 29.34
8 18.29 8.69
