Traveling Salesman Problem/TSP_generados/Aleatorio1621103296_8.opt.tour
NAME: Aleatorio1621103296_8.opt.tour
COMMENT: Optimal solution for Aleatorio1621103296_8 (147.87700124912027)
TYPE: TOUR
DIMENSION: 8
TOUR_SECTION
1 6 8 2 4 5 7 3
-1
EOF
